p cnf 134 366
c t mc
-1 -2 -3 0
1 2 -3 0
-1 2 3 0
1 -2 3 0
7 5 0
7 -6 0
-5 6 -7 0
8 -4 0
8 -7 0
4 7 -8 0
-8 9 -10 0
8 -9 -10 0
-8 -9 10 0
8 9 10 0
11 3 0
11 -10 0
-3 10 -11 0
14 -12 0
14 13 0
12 -13 -14 0
-16 14 0
-16 15 0
-14 -15 16 0
-19 -17 0
-19 -18 0
17 18 19 0
21 19 0
21 20 0
-19 -20 -21 0
22 -16 0
22 21 0
16 -21 -22 0
-23 -11 0
-23 22 0
11 -22 23 0
-25 -24 0
-25 24 0
27 -25 0
27 26 0
25 -26 -27 0
-29 27 0
-29 -28 0
-27 28 29 0
-33 31 0
-33 32 0
-31 -32 33 0
30 33 -34 0
-30 -33 -34 0
30 -33 34 0
-30 33 34 0
35 -6 0
35 -12 0
6 12 -35 0
-36 -35 0
-36 5 0
35 -5 36 0
37 -34 0
37 -36 0
34 36 -37 0
38 -29 0
38 37 0
29 -37 -38 0
-40 33 0
-40 39 0
-33 -39 40 0
-43 41 0
-43 -42 0
-41 42 43 0
44 28 0
44 43 0
-28 -43 -44 0
-45 13 0
-45 33 0
-13 -33 45 0
46 44 0
46 -45 0
-44 45 -46 0
-48 -47 0
-48 -17 0
47 17 48 0
-46 48 -49 0
46 -48 -49 0
-46 -48 49 0
46 48 49 0
40 49 -50 0
-40 -49 -50 0
40 -49 50 0
-40 49 50 0
47 28 -51 0
-47 -28 -51 0
47 -28 51 0
-47 28 51 0
50 -51 -52 0
-50 51 -52 0
50 51 52 0
-50 -51 52 0
53 -38 0
53 52 0
38 -52 -53 0
-23 -53 -54 0
23 53 -54 0
-23 53 54 0
23 -53 54 0
55 46 0
55 -28 0
-46 28 -55 0
56 48 -57 0
-56 -48 -57 0
56 -48 57 0
-56 48 57 0
-59 58 0
-59 14 0
-58 -14 59 0
60 -59 0
60 48 0
59 -48 -60 0
61 -18 0
61 -60 0
18 60 -61 0
62 57 0
62 61 0
-57 -61 -62 0
63 -55 0
63 -62 0
55 62 -63 0
-64 56 0
-64 -9 0
-56 9 64 0
-65 63 0
-65 64 0
-63 -64 65 0
66 2 0
66 -5 0
-2 5 -66 0
67 -2 0
67 66 0
2 -66 -67 0
-68 65 0
-68 -67 0
-65 67 68 0
-48 12 -69 0
48 -12 -69 0
-48 -12 69 0
48 12 69 0
70 69 0
70 33 0
-69 -33 -70 0
-71 -68 0
-71 -70 0
68 70 71 0
73 -72 0
73 -48 0
72 48 -73 0
-74 -13 0
-74 2 0
13 -2 74 0
75 -9 0
75 -74 0
9 74 -75 0
77 -76 0
77 41 0
76 -41 -77 0
78 35 0
78 77 0
-35 -77 -78 0
-75 78 -79 0
75 -78 -79 0
-75 -78 79 0
75 78 79 0
80 -73 0
80 79 0
73 -79 -80 0
-82 81 0
-82 33 0
-81 -33 82 0
83 32 0
83 72 0
-32 -72 -83 0
87 -85 0
87 86 0
85 -86 -87 0
-88 87 0
-88 41 0
-87 -41 88 0
-89 84 0
-89 -88 0
-84 88 89 0
-83 89 -90 0
83 -89 -90 0
-83 -89 90 0
83 89 90 0
-91 82 0
-91 -90 0
-82 90 91 0
-92 80 0
-92 91 0
-80 -91 92 0
93 -71 0
93 92 0
71 -92 -93 0
-94 54 0
-94 93 0
-54 -93 94 0
-95 60 -96 0
95 -60 -96 0
-95 -60 96 0
95 60 96 0
97 -4 0
97 13 0
4 -13 -97 0
98 97 0
98 -47 0
-97 47 -98 0
-99 -28 0
-99 97 0
28 -97 99 0
100 98 0
100 99 0
-98 -99 -100 0
-101 96 0
-101 100 0
-96 -100 101 0
32 -86 -102 0
-32 86 -102 0
32 86 102 0
-32 -86 102 0
13 42 -103 0
-13 -42 -103 0
13 -42 103 0
-13 42 103 0
-104 4 0
-104 103 0
-4 -103 104 0
-2 60 -105 0
2 -60 -105 0
-2 -60 105 0
2 60 105 0
-106 -25 0
-106 105 0
25 -105 106 0
107 104 0
107 106 0
-104 -106 -107 0
-108 -102 0
-108 -107 0
102 107 108 0
-109 5 0
-109 -30 0
-5 30 109 0
109 76 -110 0
-109 -76 -110 0
109 -76 110 0
-109 76 110 0
-112 2 0
-112 111 0
-2 -111 112 0
-111 95 -113 0
111 -95 -113 0
-111 -95 113 0
111 95 113 0
114 113 0
114 -59 0
-113 59 -114 0
115 114 0
115 8 0
-114 -8 -115 0
116 -112 0
116 -115 0
112 115 -116 0
117 -110 0
117 116 0
110 -116 -117 0
-118 108 0
-118 117 0
-108 -117 118 0
119 -56 0
119 -46 0
56 46 -119 0
121 30 0
121 -120 0
-30 120 -121 0
122 119 0
122 121 0
-119 -121 -122 0
42 13 -124 0
-42 -13 -124 0
42 -13 124 0
-42 13 124 0
125 9 0
125 124 0
-9 -124 -125 0
126 123 0
126 -125 0
-123 125 -126 0
127 122 0
127 -126 0
-122 126 -127 0
-128 118 0
-128 -127 0
-118 127 128 0
-129 -72 0
-129 121 0
72 -121 129 0
-130 -17 0
-130 -18 0
17 18 130 0
129 130 -131 0
-129 -130 -131 0
129 -130 131 0
-129 130 131 0
132 128 0
132 131 0
-128 -131 -132 0
-133 -101 0
-133 -132 0
101 132 133 0
94 -133 -134 0
-94 133 -134 0
94 133 134 0
-94 -133 134 0
-36 -95 10 23 17 6 0
113 -59 65 -118 90 0
79 33 -126 -32 0
-8 -3 -54 -109 49 0
89 -40 131 20 1 25 83 56 -29 -62 0
-68 -72 -52 -24 -4 133 -26 -97 -35 0
-23 99 84 -88 -43 -75 -100 133 128 0
97 123 -112 125 108 -116 -130 78 0
-2 78 80 15 0
-36 104 64 -109 0
-20 53 129 12 113 0
-72 -132 -31 74 0
-5 40 -9 0
14 -53 -1 -9 -17 27 98 20 44 0
-108 -65 -122 60 94 -56 0
-19 29 -53 -23 122 -94 110 0
-24 -58 96 132 0
70 88 35 112 54 -79 0
-117 35 121 30 97 -75 44 -51 0
15 30 -4 25 -113 114 0
-113 70 -119 92 0
-81 -113 -57 38 0
134 -54 86 76 68 -98 -30 -106 0
46 119 79 -89 -21 110 0
47 89 17 9 81 0
-61 78 -115 -39 -9 124 41 0
-15 67 36 45 0
-29 -61 -57 80 67 72 -33 4 0
128 -86 -73 113 0
-49 -7 43 -5 -91 0
30 12 -55 -42 -1 85 0
-30 -117 38 106 3 -126 -20 0
39 -50 51 104 129 0
-85 -132 -55 -28 0
-119 -50 -120 47 57 69 -90 0
105 47 -19 -65 -44 -97 129 -86 0
-49 116 71 -65 -124 3 -79 84 132 -12 0
104 17 -7 -115 57 0
56 -16 64 11 0
-84 71 -89 -60 77 -106 80 61 0
-14 -82 -42 -58 22 40 97 -116 0
121 -78 79 -111 -90 5 -55 34 13 0
-10 18 -28 123 -63 60 0
120 -17 83 -95 0
-50 -57 -101 79 59 -42 21 -65 0
134 0
